Li6 P1 S5 Cl1                           
   1.00000000000000     
    -5.1675989427404785   -0.0745762357087314   -5.0555322936310292
     4.9670779836347387   -4.8815937976317221    0.1258770857625507
    -5.1170054464151118   -5.0320392819822555   -0.1253345046295482
   Li   P    S    Cl
     6     1     5     1
Direct
  0.3734030500511646  0.0368352120302422  0.0489891216104039
  0.6043807782196342  0.5770351823997050  0.0188410522479999
  0.9336587360345113  0.3324816273439342  0.0375451491220531
  0.6317410625250979  0.6031775456606784  0.3770448002152968
  0.0448600591755696  0.0510641909403253  0.5787331954814765
  0.4147716825421710  0.0394085498747224  0.5764715065653686
  0.0053054854519772  0.5042611818051793  0.4981229310969316
  0.5040808566301656  0.2623353377702232  0.2609127743124297
  0.7448211406856876  0.1354744292819295  0.6322991231530188
  0.7702230430654027  0.6246817935457871  0.6199143969148786
  0.2314124322340389  0.6159351255918364  0.6182436279766813
  0.2430891074367612  0.6231110277030822  0.1401614670591736
 -0.0017474340521817 -0.0262012039476351 -0.0276791457557018
 
  0.00000000E+00  0.00000000E+00  0.00000000E+00
  0.00000000E+00  0.00000000E+00  0.00000000E+00
  0.00000000E+00  0.00000000E+00  0.00000000E+00
  0.00000000E+00  0.00000000E+00  0.00000000E+00
  0.00000000E+00  0.00000000E+00  0.00000000E+00
  0.00000000E+00  0.00000000E+00  0.00000000E+00
  0.00000000E+00  0.00000000E+00  0.00000000E+00
  0.00000000E+00  0.00000000E+00  0.00000000E+00
  0.00000000E+00  0.00000000E+00  0.00000000E+00
  0.00000000E+00  0.00000000E+00  0.00000000E+00
  0.00000000E+00  0.00000000E+00  0.00000000E+00
  0.00000000E+00  0.00000000E+00  0.00000000E+00
  0.00000000E+00  0.00000000E+00  0.00000000E+00
