pymatgen v2020.6.8 with grid density = 861 / number of atoms
0
Gamma
4 4 4
