Li6 P1 S5 Cl1
1.0
-4.929500 0.000000 -4.929500
4.929500 -4.929500 0.000000
-4.929500 -4.929500 0.000000
Li P S Cl
6 1 5 1
direct
0.370400 0.018000 0.018000 Li+
0.629600 0.611600 0.018000 Li+
0.964000 0.352400 0.018000 Li+
0.629600 0.611600 0.352400 Li+
0.036000 0.018000 0.611600 Li+
0.370400 0.018000 0.611600 Li+
1.000000 0.500000 0.500000 P5+
0.500000 0.250000 0.250000 S2-
0.761060 0.141590 0.619470 S2-
0.761060 0.619470 0.619470 S2-
0.238940 0.619470 0.619470 S2-
0.238940 0.619470 0.141590 S2-
0.000000 0.000000 1.000000 Cl-
